NAME : mr14
COMMENT : 14-city problem (DISC)
TYPE : TSP
DIMENSION : 14
EDGE_WEIGHT_TYPE : EUC_2D
NODE_COORD_SECTION
1 52 68
2 78 22
3 88 94
4 1 38
5 31 76
6 96 77
7 52 88
8 32 12
9 54 31
10 23 48
11 81 68
12 35 26
13 54 71
14 1 66
EOF
